p tw 58 62
1 2
2 13
3 4
4 5
5 6
6 7
6 48
7 8
8 9
9 10
10 11
11 12
12 14
13 24
14 15
14 30
15 16
16 17
17 18
18 19
19 20
20 21
20 53
21 22
22 23
23 25
24 35
25 26
26 27
27 28
28 29
29 53
30 31
31 32
32 33
33 34
34 36
34 53
35 46
36 37
37 38
38 39
39 40
40 41
41 42
42 43
43 44
44 45
45 47
46 55
47 53
48 49
49 50
49 53
50 51
51 52
52 53
53 54
55 56
56 57
57 58
58 3
